* R0X5 main file generated by charmmgen
* author: Victor Bazterra 2004 CHPC
* 

Read rtf card name ligand_0X5_h_CHARMM.rtf

Read param card name ligand_0X5_h_CHARMM.prm

Read sequence card
* Reading the coordinates of residue
* 
    1
R0X5
Generate R0X5 setup
Read coor card free
* Residues coordinate
* 
   36
    1    1 R0X5 C4    -6.76800  -6.02900 -15.49600
    2    1 R0X5 C5    -7.36300  -4.75600 -15.58700
    3    1 R0X5 C6    -6.59200  -3.62600 -15.82500
    4    1 R0X5 C11   -8.76200  -9.18600 -16.02800
    5    1 R0X5 C8    -7.64800  -7.16900 -15.16300
    6    1 R0X5 C12   -9.57600  -9.51400 -14.92300
    7    1 R0X5 C13  -10.44800 -10.59600 -15.03300
    8    1 R0X5 C3    -5.37900  -6.15300 -15.68800
    9    1 R0X5 C1    -5.22500  -3.75700 -16.00300
   10    1 R0X5 C2    -4.62200  -5.01200 -15.93500
   11    1 R0X5 Cl1   -9.07800  -4.60200 -15.44700
   12    1 R0X5 O9    -8.14000  -7.21600 -14.03100
   13    1 R0X5 N10   -7.91500  -8.07800 -16.11600
   14    1 R0X5 N14  -10.48400 -11.32300 -16.14900
   15    1 R0X5 C15   -9.72800 -11.06100 -17.21600
   16    1 R0X5 C16   -8.86400  -9.96300 -17.18100
   17    1 R0X5 N17   -9.83200 -11.87700 -18.36400
   18    1 R0X5 C18   -8.87500 -11.98000 -19.33600
   19    1 R0X5 O19   -7.84200 -11.33900 -19.27100
   20    1 R0X5 C20   -9.09400 -12.90300 -20.52800
   21    1 R0X5 C21   -8.44800 -12.54300 -21.87300
   22    1 R0X5 C22   -7.90000 -13.70900 -21.05500
   23    1 R0X5 Cl2   -4.58100  -7.69600 -15.67700
   24    1 R0X5 H     -7.03500  -2.69500 -15.86900
   25    1 R0X5 H1    -9.52700  -8.96400 -14.05100
   26    1 R0X5 H2   -11.07000 -10.83500 -14.24500
   27    1 R0X5 H3    -4.64900  -2.92100 -16.18700
   28    1 R0X5 H4    -3.60200  -5.09600 -16.06900
   29    1 R0X5 H5    -7.46000  -7.94800 -16.97900
   30    1 R0X5 H6    -8.29900  -9.72700 -18.01200
   31    1 R0X5 H7   -10.65200 -12.41000 -18.47300
   32    1 R0X5 H8   -10.08700 -13.13600 -20.20500
   33    1 R0X5 H9    -8.97400 -12.73100 -22.78600
   34    1 R0X5 H10   -8.02900 -11.65400 -22.29600
   35    1 R0X5 H11   -6.94600 -13.62500 -20.57800
   36    1 R0X5 H12   -7.71400 -14.74500 -21.24700
Energy ihbfrq 0 inbfrq -1
Open write card unit 14 name tmp.out
Write energy card unit 14
* R0X5 energy before the optimization
* 
Minimise Abnr Nstep 5000 Tolgrd 0.00001
Write energy card unit 14
* R0X5 energy after optimization
* 
Write coor card unit 14
* R0X5 energy after optimization
* 
