* R0X6 main file generated by charmmgen
* author: Victor Bazterra 2004 CHPC
* 

Read rtf card name ligand_0X6_h_CHARMM.rtf

Read param card name ligand_0X6_h_CHARMM.prm

Read sequence card
* Reading the coordinates of residue
* 
    1
R0X6
Generate R0X6 setup
Read coor card free
* Residues coordinate
* 
   37
    1    1 R0X6 C4    -9.63900 -10.85200 -17.28600
    2    1 R0X6 C14   -4.61600  -4.87500 -16.16400
    3    1 R0X6 C5    -8.84600  -9.70300 -17.25000
    4    1 R0X6 C6    -8.73400  -8.96400 -16.07000
    5    1 R0X6 C11   -7.31000  -4.50300 -15.48900
    6    1 R0X6 C8    -7.59800  -6.95400 -15.12900
    7    1 R0X6 C10   -6.75000  -5.79400 -15.48400
    8    1 R0X6 C12   -6.52500  -3.41200 -15.81400
    9    1 R0X6 C13   -5.17700  -3.59000 -16.15200
   10    1 R0X6 N3   -10.32800 -11.20800 -16.19900
   11    1 R0X6 C1    -9.48700  -9.38400 -14.95500
   12    1 R0X6 C2   -10.27400 -10.52300 -15.06000
   13    1 R0X6 N7    -7.93300  -7.81200 -16.12300
   14    1 R0X6 O9    -7.96300  -7.08500 -13.97100
   15    1 R0X6 C15   -5.39800  -5.97000 -15.83700
   16    1 R0X6 Cl1   -4.69100  -7.55000 -15.88200
   17    1 R0X6 C17   -4.36700  -2.46200 -16.48800
   18    1 R0X6 N18   -3.71600  -1.57200 -16.75200
   19    1 R0X6 Cl2   -8.98500  -4.26900 -15.09400
   20    1 R0X6 N20   -9.75300 -11.63500 -18.44700
   21    1 R0X6 C21   -8.77700 -11.86300 -19.37100
   22    1 R0X6 O22   -7.66500 -11.35900 -19.28500
   23    1 R0X6 C23   -9.12300 -12.75800 -20.54300
   24    1 R0X6 C24   -8.42900 -12.54800 -21.89200
   25    1 R0X6 C25   -8.08100 -13.76600 -21.03100
   26    1 R0X6 H     -3.62400  -5.00400 -16.41600
   27    1 R0X6 H1    -8.34100  -9.39900 -18.09700
   28    1 R0X6 H2    -6.93300  -2.46400 -15.80800
   29    1 R0X6 H3    -9.45400  -8.85200 -14.07200
   30    1 R0X6 H4   -10.82300 -10.84100 -14.24600
   31    1 R0X6 H5    -7.56200  -7.59700 -17.00900
   32    1 R0X6 H6   -10.62500 -12.06200 -18.61000
   33    1 R0X6 H7   -10.14300 -12.81000 -20.22400
   34    1 R0X6 H8    -8.97800 -12.67500 -22.80200
   35    1 R0X6 H9    -7.87000 -11.75300 -22.34000
   36    1 R0X6 H10   -7.12800 -13.82600 -20.54900
   37    1 R0X6 H11   -8.06800 -14.82400 -21.18800
Energy ihbfrq 0 inbfrq -1
Open write card unit 14 name tmp.out
Write energy card unit 14
* R0X6 energy before the optimization
* 
Minimise Abnr Nstep 5000 Tolgrd 0.00001
Write energy card unit 14
* R0X6 energy after optimization
* 
Write coor card unit 14
* R0X6 energy after optimization
* 
